1.000000 0.500000 0.500000
5
5 2 3 4 5 6 
5 7 8 9 10 11 
5 12 13 14 15 16 
5 17 18 19 20 21 
5 22 23 24 25 26 
1 1 
1 2 
1 2 
1 2 
1 2 
1 2 
1 2 
1 2 
1 2 
1 2 
1 2 
1 2 
1 2 
1 3 
1 3 
1 3 
1 3 
1 3 
1 3 
1 3 
1 3 
1 3 
1 3 
1 3 
1 3 
1 4 
1 4 
1 4 
1 4 
1 4 
1 4 
1 4 
1 4 
1 4 
1 4 
1 4 
1 4 
1 5 
1 5 
1 5 
1 5 
1 5 
1 5 
1 5 
1 5 
1 5 
1 5 
1 5 
1 5 
1 6 
1 6 
1 6 
1 6 
1 6 
1 6 
1 6 
1 6 
1 6 
1 6 
1 6 
1 6 
1 1 
1 7 
1 7 
1 7 
1 7 
1 7 
1 7 
1 7 
1 7 
1 7 
1 7 
1 7 
1 7 
1 8 
1 8 
1 8 
1 8 
1 8 
1 8 
1 8 
1 8 
1 8 
1 8 
1 8 
1 8 
1 9 
1 9 
3 9 4 8 
1 9 
3 9 4 8 
1 9 
3 9 4 8 
1 9 
3 9 4 8 
1 9 
1 9 
3 9 4 8 
1 10 
1 10 
1 10 
1 10 
1 10 
1 10 
1 10 
1 10 
1 10 
1 10 
1 10 
1 10 
1 11 
1 11 
1 11 
1 11 
1 11 
1 11 
1 11 
1 11 
1 11 
1 11 
1 11 
1 11 
1 1 
1 12 
1 12 
1 12 
1 12 
1 12 
1 12 
1 12 
1 12 
2 12 2 
2 12 2 
2 12 2 
2 12 2 
2 12 2 
2 12 2 
2 12 2 
1 12 
2 12 2 
2 12 2 
2 12 2 
2 12 2 
2 12 2 
2 12 2 
2 12 2 
2 12 2 
1 12 
1 12 
1 12 
1 12 
1 12 
1 12 
1 12 
2 12 2 
1 13 
1 13 
1 13 
1 13 
1 13 
1 13 
1 13 
1 13 
1 13 
1 13 
1 13 
1 13 
1 13 
1 13 
1 13 
1 13 
1 13 
1 13 
1 13 
1 13 
1 13 
1 13 
1 13 
1 13 
1 13 
1 13 
1 13 
1 13 
1 13 
1 13 
1 13 
1 13 
1 14 
1 14 
1 14 
1 14 
1 14 
1 14 
1 14 
1 14 
1 14 
1 14 
1 14 
1 14 
1 14 
1 14 
1 14 
1 14 
1 14 
1 14 
1 14 
1 14 
1 14 
1 14 
1 14 
1 14 
1 14 
1 14 
1 14 
1 14 
1 14 
1 14 
1 14 
1 14 
1 15 
1 15 
1 15 
1 15 
1 15 
1 15 
1 15 
1 15 
1 15 
1 15 
1 15 
1 15 
1 16 
1 16 
1 16 
1 16 
1 16 
1 16 
1 16 
1 16 
1 16 
1 16 
1 16 
1 16 
1 16 
1 16 
1 16 
1 16 
1 16 
1 16 
1 16 
1 16 
1 16 
1 16 
1 16 
1 16 
1 16 
5 16 9 4 8 13 
5 16 9 4 8 13 
2 16 7 
1 16 
1 16 
1 16 
6 16 7 9 4 8 13 
1 17 
1 17 
2 17 5 
2 17 5 
1 17 
1 17 
2 17 5 
2 17 5 
2 17 5 
1 17 
2 17 5 
3 17 5 11 
3 17 5 11 
2 17 5 
2 17 5 
1 17 
3 17 5 11 
2 17 5 
2 17 5 
3 17 5 11 
2 17 5 
3 17 5 11 
1 18 
1 18 
1 18 
1 18 
1 18 
1 18 
1 18 
2 18 3 
1 18 
1 18 
2 18 3 
2 18 3 
1 18 
2 18 3 
2 18 3 
2 18 3 
2 18 3 
2 18 3 
2 18 3 
2 18 3 
2 18 3 
2 18 3 
1 19 
1 19 
1 19 
1 19 
1 19 
1 19 
1 19 
1 19 
1 19 
1 19 
1 19 
1 19 
1 19 
1 19 
1 19 
1 19 
1 19 
1 19 
1 19 
1 19 
1 19 
1 19 
1 20 
1 20 
1 20 
1 20 
1 20 
1 20 
1 20 
1 20 
1 20 
1 20 
1 20 
1 20 
1 21 
1 21 
1 21 
1 21 
1 21 
1 21 
1 21 
1 21 
1 21 
1 21 
1 21 
1 21 
1 21 
1 21 
1 21 
1 21 
1 21 
1 21 
1 21 
1 21 
1 21 
1 21 
1 22 
1 22 
1 22 
1 22 
2 22 10 
1 22 
2 22 10 
1 22 
2 22 10 
2 22 10 
2 22 10 
2 22 10 
1 23 
2 23 12 
2 23 12 
2 23 12 
2 23 12 
1 23 
1 23 
1 23 
2 23 12 
2 23 12 
2 23 12 
2 23 12 
1 24 
1 24 
1 24 
1 24 
1 24 
1 24 
1 24 
1 24 
1 24 
1 24 
1 24 
1 24 
1 25 
1 25 
1 25 
1 25 
1 25 
2 25 6 
1 25 
2 25 6 
2 25 6 
2 25 6 
1 25 
2 25 6 
1 26 
1 26 
1 26 
1 26 
1 26 
1 26 
1 26 
1 26 
1 26 
1 26 
1 26 
1 26 
1 1 
